Fe2O3
1.0
5.038000 0.000000 0.000000
0.000000 5.038000 0.000000
0.000000 0.000000 13.772000
Fe O
4 6
Direct
0.000000 0.000000 0.355300
0.000000 0.000000 0.144700
0.333300 0.666700 0.688600
0.666700 0.333300 0.811400
0.306000 0.000000 0.250000
0.000000 0.306000 0.250000
0.694000 0.694000 0.250000
0.361000 0.333300 0.083300
0.666700 0.027700 0.083300
0.972300 0.639000 0.083300
